65
Lattice="10.22405694917629 0.0 0.0 5.112028474588145 8.854293047725491 0.0 0.0 0.0 21.2609306566596" Properties=species:S:1:pos:R:3:forces:R:3 energy=-252.06612662 pbc="T T T"
Cu       0.00000000       0.00000000       0.00000000      -0.00671804      -0.01505769       0.16038922
Cu       2.55601424       0.00000000       0.00000000       0.00642095      -0.01476816       0.15991817
Cu       5.11202847       0.00000000       0.00000000      -0.00352714      -0.00207362       0.19742218
Cu       7.66804271       0.00000000       0.00000000       0.00257717      -0.00130605       0.19697539
Cu       1.27800712       2.21357326       0.00000000      -0.00054620      -0.02395191       0.17710653
Cu       3.83402136       2.21357326       0.00000000      -0.03400739       0.01982458       0.04032040
Cu       6.39003559       2.21357326       0.00000000       0.00018107       0.00397644       0.19763343
Cu       8.94604983       2.21357326       0.00000000       0.03343085       0.01907395       0.03987972
Cu       2.55601424       4.42714652       0.00000000       0.02022580       0.01205999       0.17772149
Cu       5.11202847       4.42714652       0.00000000       0.01578587       0.00208991       0.15980870
Cu       7.66804271       4.42714652       0.00000000      -0.01579464       0.00217123       0.16014331
Cu      10.22405695       4.42714652       0.00000000      -0.02063012       0.01165434       0.17696057
Cu       3.83402136       6.64071979       0.00000000       0.00953283       0.01289496       0.16034689
Cu       6.39003559       6.64071979       0.00000000      -0.00025529       0.00032057       0.28448832
Cu       8.94604983       6.64071979       0.00000000      -0.00950675       0.01246296       0.16017835
Cu      11.50206407       6.64071979       0.00000000       0.00035621      -0.03863308       0.04002295
Cu       1.27800712       0.73785775       2.08697689      -0.00328008       0.03504661      -0.12867399
Cu       3.83402136       0.73785775       2.08697689       0.01076936      -0.07316411      -0.11540379
Cu       6.39003559       0.73785775       2.08697689       0.00026932      -0.00017416      -0.19235329
Cu       8.94604983       0.73785775       2.08697689      -0.00714021      -0.07161278      -0.11419900
Cu       2.55601424       2.95143102       2.08697689       0.01013885      -0.00555275      -0.20167205
Cu       5.11202847       2.95143102       2.08697689       0.06778588       0.02713358      -0.11638670
Cu       7.66804271       2.95143102       2.08697689      -0.06332528       0.02785389      -0.11558558
Cu      10.22405695       2.95143102       2.08697689      -0.00606412      -0.00587713      -0.20013852
Cu       3.83402136       5.16500428       2.08697689      -0.03081857      -0.01379905      -0.12908521
Cu       6.39003559       5.16500428       2.08697689       0.00272109      -0.03876591      -0.18936163
Cu       8.94604983       5.16500428       2.08697689       0.03480700      -0.01974675      -0.12836304
Cu      11.50206407       5.16500428       2.08697689       0.00231345       0.00802219      -0.20081657
Cu       5.11202847       7.37857754       2.08697689      -0.03239293       0.01945985      -0.18835528
Cu       7.66804271       7.37857754       2.08697689       0.03634041       0.01857997      -0.18722109
Cu      10.22405695       7.37857754       2.08697689      -0.05626560       0.04142209      -0.11397317
Cu      12.78007119       7.37857754       2.08697689       0.05844301       0.04147504      -0.11354984
Cu      -0.00675518       1.47615780       4.07995470       0.01227265      -0.00482943      -0.00645946
Cu       2.56249368       1.47435667       4.07809570      -0.00244984       0.00746059       0.00151368
Cu       5.11659694       1.47307931       4.09517227       0.00792497      -0.00188550      -0.00305192
Cu       7.66493837       1.47308450       4.09502819      -0.00872395      -0.00321494      -0.00274164
Cu       1.27951768       3.68859702       4.09353248       0.00246680      -0.00175228      -0.00735460
Cu       3.83877164       3.68471117       4.07812163      -0.00722504      -0.00245438       0.00182918
Cu       6.39205467       3.66596418       4.09711681      -0.00163924       0.00599719       0.00103313
Cu       8.94467621       3.68246954       4.07949555      -0.00227666       0.01213753       0.00162754
Cu       2.55258142       5.90854470       4.07990038       0.01018862      -0.00663691      -0.00653679
Cu       5.11589801       5.90345060       4.06259358      -0.00359170       0.00394694      -0.00680087
Cu       7.66820664       5.90304214       4.06249993      -0.00337944       0.00328186      -0.00079790
Cu      10.22950570       5.90760643       4.07941783      -0.01216065      -0.00403735       0.00117463
Cu       3.81595920       8.12713656       4.09760398      -0.00380200       0.00119868      -0.01311110
Cu       6.39171034       8.11330496       4.06263197      -0.00406534       0.00089938      -0.00629337
Cu       8.96807764       8.12710120       4.09807775      -0.00929752      -0.00464581      -0.00709090
Cu      11.50288728       8.12061982       4.09513830       0.00042287       0.00891811      -0.00292879
Cu       0.02057710      -0.01058317       6.08994860       0.00522825      -0.00144641       0.00326520
Cu       2.53864833      -0.01113276       6.09058857      -0.00981813      -0.00126369      -0.00031117
Cu       5.04437436      -0.03975855       6.19069860       0.01325870       0.00841580       0.00945548
Cu       7.73515013      -0.03839583       6.18720687       0.00627211      -0.00473031       0.01003356
Cu       1.27994045       2.21042660       6.11307464      -0.00417353       0.00295953      -0.00034465
Cu       3.81833615       2.22297840       6.13347747       0.00181267      -0.00025599       0.00649860
Cu       6.39081563       2.29327983       6.18999272      -0.00152141      -0.00439561       0.00083461
Cu       8.96190677       2.22231684       6.13810751       0.00900950       0.00339482      -0.00412782
Cu       2.56018905       4.42746566       6.11300495      -0.00594989       0.00190981       0.00000686
Cu       5.11301266       4.44920811       6.09065136      -0.00063908       0.00459454      -0.00179502
Cu       7.67218923       4.45047326       6.09305862      -0.00507579      -0.00837063      -0.01155682
Cu      10.22676264       4.42579696       6.11292594      -0.00663451       0.00413429       0.00195781
Cu       3.85375936       6.62887533       6.08998723       0.00327089      -0.00275205       0.00288967
Cu       6.39198242       6.64024930       6.11224531      -0.00288140       0.00177894       0.00320633
Cu       8.92877479       6.62666734       6.09302549       0.00376564       0.00533262      -0.01046136
Cu      11.50283904       6.62273361       6.13782903       0.00186912      -0.00929131      -0.00411850
S        6.39322208       0.73954426       7.78397072      -0.00428447      -0.00543701      -0.00362043
66
Lattice="10.22405694917629 0.0 0.0 5.112028474588145 8.854293047725491 0.0 0.0 0.0 21.2609306566596" Properties=species:S:1:pos:R:3:forces:R:3 energy=-257.71037613 pbc="T T T"
Cu       0.00000000       0.00000000       0.00000000      -0.00611132       0.00540301       0.27110981
Cu       2.55601424       0.00000000       0.00000000       0.04175757      -0.00099787       0.14891148
Cu       5.11202847       0.00000000       0.00000000       0.00109337      -0.04880532       0.05421549
Cu       7.66804271       0.00000000       0.00000000      -0.01074452       0.01937844       0.16215350
Cu       1.27800712       2.21357326       0.00000000      -0.02607001      -0.07978178       0.06548301
Cu       3.83402136       2.21357326       0.00000000       0.04028080       0.03105466       0.15053113
Cu       6.39003559       2.21357326       0.00000000       0.00072523      -0.00123354       0.25477312
Cu       8.94604983       2.21357326       0.00000000      -0.02406014      -0.00015675       0.16201688
Cu       2.55601424       4.42714652       0.00000000      -0.02312805       0.01242224       0.08896258
Cu       5.11202847       4.42714652       0.00000000      -0.00445082      -0.04870674       0.15022024
Cu       7.66804271       4.42714652       0.00000000       0.04115407       0.02366736       0.05467539
Cu      10.22405695       4.42714652       0.00000000       0.01288170      -0.00980588       0.15247669
Cu       3.83402136       6.64071979       0.00000000       0.05478181       0.06305471       0.06561637
Cu       6.39003559       6.64071979       0.00000000       0.02198281      -0.03348607       0.15255357
Cu       8.94604983       6.64071979       0.00000000      -0.00852932       0.00482250       0.03262812
Cu      11.50206407       6.64071979       0.00000000       0.01348151      -0.00723285       0.15309874
Cu       1.27800712       0.73785775       2.08697689      -0.02509997       0.03563996      -0.21050232
Cu       3.83402136       0.73785775       2.08697689      -0.10111014      -0.02900968      -0.09425277
Cu       6.39003559       0.73785775       2.08697689       0.03667734       0.01510170      -0.11060264
Cu       8.94604983       0.73785775       2.08697689      -0.02505221       0.01552253      -0.11593226
Cu       2.55601424       2.95143102       2.08697689       0.08024251      -0.03708417      -0.08458296
Cu       5.11202847       2.95143102       2.08697689      -0.05504730       0.02715381      -0.15235260
Cu       7.66804271       2.95143102       2.08697689       0.00150108      -0.04629231      -0.11676078
Cu      10.22405695       2.95143102       2.08697689      -0.04341371       0.08932747      -0.10043009
Cu       3.83402136       5.16500428       2.08697689       0.06788683      -0.04909242      -0.08102256
Cu       6.39003559       5.16500428       2.08697689      -0.02806781       0.10075001      -0.09762150
Cu       8.94604983       5.16500428       2.08697689      -0.00438068      -0.08607666      -0.14314642
Cu      11.50206407       5.16500428       2.08697689       0.01886939      -0.00885650      -0.17900563
Cu       5.11202847       7.37857754       2.08697689      -0.03951716       0.00649745      -0.21057169
Cu       7.66804271       7.37857754       2.08697689      -0.00547930       0.00038974      -0.15860302
Cu      10.22405695       7.37857754       2.08697689       0.07609069       0.04273948      -0.13910782
Cu      12.78007119       7.37857754       2.08697689      -0.10235804      -0.01113032      -0.09602401
Cu      -0.00529933       1.48032359       4.06372643      -0.00605436       0.00784256      -0.00089634
Cu       2.56522822       1.49763338       4.09437296      -0.00235342       0.00451951      -0.00011110
Cu       5.10398071       1.48612025       4.08007047       0.00204832      -0.01119178       0.00250741
Cu       7.63015855       1.49576161       4.08357220       0.00716178      -0.00304989      -0.01367002
Cu       1.27509946       3.69859453       4.09708973      -0.00651561       0.00555777       0.00350787
Cu       3.81235093       3.69990013       4.11820774       0.00319120       0.00349064      -0.00721921
Cu       6.37647589       3.68992391       4.07843048       0.00195020      -0.00265692      -0.00012959
Cu       8.95163794       3.71064769       4.09676364       0.00758203      -0.00491184       0.00031327
Cu       2.54443078       5.89992286       4.09952875      -0.00284539      -0.00028225      -0.00492881
Cu       5.09468042       5.88315991       4.09350590       0.00771567       0.00706942      -0.01257776
Cu       7.66012593       5.90357729       4.08484451      -0.00421955       0.01194312      -0.00379993
Cu      10.22309014       5.90316645       4.10966248      -0.00032616      -0.00229522       0.00379960
Cu       3.82545120       8.11906126       4.06266513       0.00494451       0.00074772       0.00460568
Cu       6.38104481       8.12180600       4.06933400      -0.00278488      -0.00552165       0.00544651
Cu       8.93908042       8.12090197       4.08424145      -0.00026639      -0.00209808       0.00517774
Cu      11.48564442       8.09777685       4.09944936      -0.00058602      -0.00681935       0.00328687
Cu      -0.00742071       0.00549723       6.10937111      -0.00076750      -0.00938404      -0.00759053
Cu       2.52983260      -0.01064134       6.08994464       0.00876868      -0.00653197      -0.01073589
Cu       5.10229471       0.00452753       6.10799520      -0.00127762       0.00651333      -0.00715290
Cu       7.68041377       0.01631971       6.06048762       0.00407470      -0.00622885      -0.00104198
Cu       1.24880195       2.18772398       6.09991472      -0.00578614       0.00270814       0.00192797
Cu       3.76944328       2.15642741       6.16548980      -0.00543023       0.00043837       0.00470050
Cu       6.44074302       2.18095723       6.19639205       0.00545720       0.00008834      -0.01220137
Cu       8.93542142       2.18935838       6.05916999       0.00265862       0.00036088       0.00096863
Cu       2.60507613       4.39936227       6.22986035      -0.01004565      -0.00034920       0.00773671
Cu       5.12707713       4.51465224       6.16068846      -0.00249493       0.00620499       0.00437185
Cu       7.65328170       4.42877157       6.10553693      -0.00244113      -0.00009998       0.00535270
Cu      10.15089455       4.37066391       6.17902116       0.01334151       0.00318702       0.01039201
Cu       3.84220744       6.68023358       6.09736019      -0.00692543       0.00799587       0.00810169
Cu       6.38614375       6.66889856       6.08764044       0.00775413      -0.00252999      -0.00449597
Cu       8.93123798       6.64668286       6.13059059      -0.00108919       0.00063630      -0.00011334
Cu      11.51243368       6.72065761       6.18970620       0.00547419      -0.00276030      -0.00256270
S        5.06637676       2.98664978       7.76049822      -0.00490448      -0.00779822      -0.01146531
S       11.43008478       5.18707217       7.78943185       0.00820516       0.01002937      -0.00041133
67
Lattice="10.22405694917629 0.0 0.0 5.112028474588145 8.854293047725491 0.0 0.0 0.0 21.2609306566596" Properties=species:S:1:pos:R:3:forces:R:3 energy=-263.31432061 pbc="T T T"
Cu       0.00000000       0.00000000       0.00000000      -0.02762733      -0.07639280       0.07249208
Cu       2.55601424       0.00000000       0.00000000      -0.01049113       0.02081574       0.15245884
Cu       5.11202847       0.00000000       0.00000000      -0.00011788      -0.00069123       0.22997857
Cu       7.66804271       0.00000000       0.00000000       0.03036057       0.00219909       0.16006384
Cu       1.27800712       2.21357326       0.00000000      -0.02746236       0.01871494       0.13985901
Cu       3.83402136       2.21357326       0.00000000      -0.01968797      -0.00378696       0.15359742
Cu       6.39003559       2.21357326       0.00000000       0.01733188      -0.06051083      -0.00783938
Cu       8.94604983       2.21357326       0.00000000       0.01071194       0.00507296       0.11561334
Cu       2.55601424       4.42714652       0.00000000       0.04750687       0.06284830       0.07244127
Cu       5.11202847       4.42714652       0.00000000      -0.01888694      -0.04514663       0.14119917
Cu       7.66804271       4.42714652       0.00000000       0.01564029      -0.01173739       0.05381305
Cu      10.22405695       4.42714652       0.00000000      -0.00328883      -0.02072661       0.11842185
Cu       3.83402136       6.64071979       0.00000000       0.00501736      -0.00404902       0.11775144
Cu       6.39003559       6.64071979       0.00000000       0.02939334       0.03878596       0.14090755
Cu       8.94604983       6.64071979       0.00000000       0.06227480       0.01422873      -0.00440439
Cu      11.50206407       6.64071979       0.00000000       0.01320288      -0.03210498       0.15933091
Cu       1.27800712       0.73785775       2.08697689       0.06238677      -0.09306258      -0.07764057
Cu       3.83402136       0.73785775       2.08697689      -0.06463940       0.03898512      -0.04210924
Cu       6.39003559       0.73785775       2.08697689      -0.03042757      -0.00124811      -0.16645993
Cu       8.94604983       0.73785775       2.08697689      -0.08749828       0.01126051      -0.07759115
Cu       2.55601424       2.95143102       2.08697689       0.11063948      -0.00158870      -0.07981577
Cu       5.11202847       2.95143102       2.08697689      -0.05296077       0.13354271      -0.06105894
Cu       7.66804271       2.95143102       2.08697689       0.03979457      -0.07050227      -0.09373534
Cu      10.22405695       2.95143102       2.08697689      -0.05495993       0.03618970      -0.17146719
Cu       3.83402136       5.16500428       2.08697689      -0.00799449      -0.08004474      -0.15791754
Cu       6.39003559       5.16500428       2.08697689       0.04851097      -0.03211226      -0.09804677
Cu       8.94604983       5.16500428       2.08697689       0.07649349      -0.00742047      -0.10703222
Cu      11.50206407       5.16500428       2.08697689      -0.03901584       0.08713547      -0.08436559
Cu       5.11202847       7.37857754       2.08697689       0.07101623       0.06471020      -0.14549570
Cu       7.66804271       7.37857754       2.08697689      -0.14359756      -0.01493834      -0.06027281
Cu      10.22405695       7.37857754       2.08697689      -0.01709551       0.03016003      -0.17000270
Cu      12.78007119       7.37857754       2.08697689      -0.04691860       0.03715042      -0.15900914
Cu      -0.00595508       1.48989665       4.08527949       0.00653989      -0.00495302      -0.00056273
Cu       2.53175695       1.49197851       4.10775714      -0.01191343       0.01306435      -0.00797473
Cu       5.10012637       1.48491823       4.07963652       0.00872892       0.00334881       0.00213421
Cu       7.66395131       1.50531720       4.10268727      -0.00752861       0.00828484      -0.01911719
Cu       1.26830164       3.69551399       4.08457237       0.00547816      -0.01269345       0.00870493
Cu       3.83631990       3.69747613       4.10591008      -0.01356407      -0.00230016       0.00531301
Cu       6.38517714       3.69715442       4.10621631       0.00590926      -0.01301135      -0.00648911
Cu       8.93476029       3.69697913       4.12219599      -0.00454299       0.01021316       0.00730644
Cu       2.55134418       5.91415724       4.06815341      -0.00586766      -0.00350871      -0.00278461
Cu       5.11335695       5.90552792       4.09270861      -0.01062770       0.00976617       0.00763679
Cu       7.65886167       5.90513233       4.10276166       0.00974552      -0.00483280       0.00170760
Cu      10.19690056       5.89529055       4.09861849       0.00162691      -0.00343525       0.01049564
Cu       3.82771343       8.12507366       4.07070015      -0.00227583      -0.01198011      -0.00764319
Cu       6.38749111       8.11962627       4.10899030       0.00304130       0.00934205       0.00270397
Cu       8.93078027       8.12270795       4.07972671       0.01030397      -0.00175468       0.00943303
Cu      11.47090074       8.13671873       4.08076597       0.00086247       0.00283208      -0.00627605
Cu      -0.03322303       0.00315051       6.08691492       0.00208869      -0.00082351      -0.01272421
Cu       2.48543851      -0.00902574       6.14888548      -0.01083876      -0.00285074      -0.01778415
Cu       5.17236265      -0.03979364       6.16777395       0.02028347       0.00580809       0.00672271
Cu       7.66281019      -0.02372989       6.06354359      -0.01090235      -0.00763155      -0.00780600
Cu       1.29644742       2.20942267       6.20126502      -0.01320186       0.00654721      -0.00149113
Cu       3.80809028       2.30052583       6.13604649       0.00982904      -0.01300909       0.00685042
Cu       6.36410058       2.19116481       6.12788063      -0.01045789       0.01145905      -0.00824994
Cu       8.87872595       2.14268205       6.15892812       0.01567668      -0.00249278       0.00484166
Cu       2.54316658       4.46777553       6.08244816      -0.00033178      -0.00520454      -0.00404995
Cu       5.05080631       4.40961415       6.16401764      -0.00159250      -0.00757442      -0.00682859
Cu       7.74383579       4.38380634       6.22971664      -0.00105879      -0.00254832      -0.00763127
Cu      10.25424782       4.52372159       6.15640580       0.01606509      -0.01085045      -0.00475803
Cu       3.82150741       6.65439666       6.11998419       0.00036054      -0.00282684      -0.01197901
Cu       6.37862038       6.72002756       6.15969632       0.01081457      -0.00012290      -0.00620932
Cu       8.94771497       6.67026580       6.12516803       0.00204401       0.00223240      -0.01121306
Cu      11.52088053       6.66164630       6.06057260       0.00055943       0.00162576      -0.00729677
S       10.11803356       3.01710168       7.76193054      -0.00759961      -0.00954878      -0.00699121
S        6.35665619       5.20302771       7.75560848      -0.00394019      -0.00080632       0.02259764
S        3.82675519       0.76887449       7.72157404      -0.00132496      -0.00550014       0.00574822
68
Lattice="10.22405694917629 0.0 0.0 5.112028474588145 8.854293047725491 0.0 0.0 0.0 21.2609306566596" Properties=species:S:1:pos:R:3:forces:R:3 energy=-268.81813031 pbc="T T T"
Cu       0.00000000       0.00000000       0.00000000       0.00943983       0.02775105      -0.04122274
Cu       2.55601424       0.00000000       0.00000000       0.00353817       0.05167506       0.03549490
Cu       5.11202847       0.00000000       0.00000000       0.10613129       0.04573554       0.00566085
Cu       7.66804271       0.00000000       0.00000000      -0.04087938       0.04505113       0.19315865
Cu       1.27800712       2.21357326       0.00000000       0.00018732       0.00615913       0.08960019
Cu       3.83402136       2.21357326       0.00000000      -0.04718113      -0.01508403       0.10557449
Cu       6.39003559       2.21357326       0.00000000      -0.00504693       0.04745143       0.10413163
Cu       8.94604983       2.21357326       0.00000000       0.05679659       0.03386201       0.13904829
Cu       2.55601424       4.42714652       0.00000000       0.06208571       0.07291082       0.10754874
Cu       5.11202847       4.42714652       0.00000000       0.12512671       0.00432412       0.05595654
Cu       7.66804271       4.42714652       0.00000000      -0.06433505      -0.02700899       0.05887424
Cu      10.22405695       4.42714652       0.00000000      -0.11923528       0.05120638       0.09709974
Cu       3.83402136       6.64071979       0.00000000       0.02734564      -0.03173097       0.14135193
Cu       6.39003559       6.64071979       0.00000000      -0.03465097      -0.00699758       0.12080836
Cu       8.94604983       6.64071979       0.00000000       0.06490942       0.00092633       0.12467443
Cu      11.50206407       6.64071979       0.00000000       0.01897838      -0.04837480       0.18694553
Cu       1.27800712       0.73785775       2.08697689      -0.04205984       0.06306698      -0.06469722
Cu       3.83402136       0.73785775       2.08697689       0.00724516       0.08692296      -0.10512915
Cu       6.39003559       0.73785775       2.08697689      -0.09513942      -0.08889872      -0.16375069
Cu       8.94604983       0.73785775       2.08697689      -0.07351294       0.04153354      -0.16868949
Cu       2.55601424       2.95143102       2.08697689       0.01605387      -0.09996949      -0.14005464
Cu       5.11202847       2.95143102       2.08697689      -0.01674305      -0.07156221      -0.04069430
Cu       7.66804271       2.95143102       2.08697689      -0.01006140      -0.05035370      -0.08276179
Cu      10.22405695       2.95143102       2.08697689      -0.11755603      -0.08167702      -0.08258145
Cu       3.83402136       5.16500428       2.08697689       0.00405846       0.06959879      -0.09658257
Cu       6.39003559       5.16500428       2.08697689      -0.10197500       0.05180603      -0.08481419
Cu       8.94604983       5.16500428       2.08697689       0.18995529      -0.02284811      -0.11723847
Cu      11.50206407       5.16500428       2.08697689      -0.02645197       0.11066390      -0.16292270
Cu       5.11202847       7.37857754       2.08697689       0.07520593      -0.20001522      -0.07126550
Cu       7.66804271       7.37857754       2.08697689      -0.03431910      -0.04178680      -0.06603404
Cu      10.22405695       7.37857754       2.08697689      -0.12490525      -0.01730610      -0.08001633
Cu      12.78007119       7.37857754       2.08697689       0.07808600      -0.02160446      -0.07864753
Cu      -0.01938366       1.45012651       4.09864643       0.00280366       0.00442380       0.01135445
Cu       2.53299992       1.46033851       4.11456478      -0.00004147       0.00837902       0.00388143
Cu       5.06654890       1.45765879       4.11840587      -0.00190966      -0.00193439       0.00250847
Cu       7.64082997       1.44630249       4.09181955       0.00101692      -0.00091241       0.00687746
Cu       1.27889650       3.67427846       4.06230190       0.00288712      -0.00254056       0.00143968
Cu       3.83750084       3.68347096       4.10240117       0.00075630       0.00581207       0.00174221
Cu       6.37757589       3.67281421       4.07955037       0.00926522      -0.01115533       0.01452758
Cu       8.92870777       3.68200697       4.08656969      -0.00644557       0.00287867       0.00159615
Cu       2.56462233       5.87736721       4.09558327      -0.00382404       0.00604451      -0.00046021
Cu       5.11685641       5.87934859       4.13192000      -0.00633824       0.00057316      -0.00484595
Cu       7.65920504       5.88510627       4.10710797       0.01048868      -0.00307242      -0.00174856
Cu      10.22345659       5.87986284       4.10715380      -0.00874980       0.00335466       0.00913203
Cu       3.80954600       8.09308371       4.07036657       0.00803705       0.00528576      -0.00183290
Cu       6.36838460       8.08871784       4.10626785       0.00121659       0.00816711       0.00451686
Cu       8.92733296       8.10222321       4.08119795       0.01169763      -0.00218268       0.01519238
Cu      11.47301392       8.11353829       4.09085282       0.00197732      -0.01379918       0.00266647
Cu      -0.04834379      -0.02415075       6.11583366       0.00463450       0.01203005      -0.01087292
Cu       2.53071072       0.07861210       6.17435169       0.02205446       0.00769257       0.00720042
Cu       5.08770274      -0.04324409       6.12954047      -0.00685603      -0.00288310      -0.00799037
Cu       7.65493541       0.04355294       6.15864907      -0.00140781       0.01049272      -0.00115850
Cu       1.14072085       2.16949090       6.13112726       0.00701636      -0.00140305       0.00722297
Cu       3.84689427       2.19583941       6.18471075       0.00274266      -0.00186501      -0.00436607
Cu       6.36918756       2.12048238       6.10586898       0.00794586       0.00485158       0.01733877
Cu       8.90317190       2.20631090       6.09362521      -0.00022202       0.00058556       0.00366026
Cu       2.53817270       4.48511615       6.16215306       0.01107576      -0.02664704       0.00781805
Cu       5.08487731       4.41071656       6.18496290       0.01067197      -0.00331926       0.00027346
Cu       7.70976926       4.43290411       6.17481389      -0.00661868       0.00154301       0.00090241
Cu      10.23125334       4.38939401       6.08399231       0.00227845       0.00696032       0.00206288
Cu       3.89342493       6.59030775       6.13787140       0.01146954      -0.00925717       0.00651793
Cu       6.35184598       6.61993773       6.18102194      -0.00375492       0.00137548      -0.01248994
Cu       9.02801992       6.57246492       6.13504687       0.01374693       0.00081894      -0.00964515
Cu      11.46265636       6.59976390       6.11496790      -0.00808762       0.00541934       0.00223573
S       12.78129027       7.34157960       7.71818000       0.02013690      -0.00214363       0.01760124
S        2.41000485       2.92685265       7.73618755       0.00699290       0.00910636      -0.01526284
S        6.41702338       3.55780341       7.75260936      -0.01008944      -0.01075086      -0.00991330
S        7.76201402       7.37499665       7.72534702       0.00234152       0.00264440       0.01349169
70
Lattice="10.22405694917629 0.0 0.0 5.112028474588145 8.854293047725491 0.0 0.0 0.0 21.2609306566596" Properties=species:S:1:pos:R:3:forces:R:3 energy=-280.16850057 pbc="T T T"
Cu       0.00000000       0.00000000       0.00000000      -0.05580763      -0.03903226       0.06009995
Cu       2.55601424       0.00000000       0.00000000      -0.02274034       0.08993040       0.12947532
Cu       5.11202847       0.00000000       0.00000000      -0.02816078      -0.04251277       0.09178828
Cu       7.66804271       0.00000000       0.00000000      -0.06161007      -0.01201689       0.13494405
Cu       1.27800712       2.21357326       0.00000000      -0.06062225       0.06601759       0.13217972
Cu       3.83402136       2.21357326       0.00000000       0.01977151      -0.08448177       0.02187156
Cu       6.39003559       2.21357326       0.00000000       0.06639343       0.01465729       0.05936924
Cu       8.94604983       2.21357326       0.00000000       0.05159779       0.04268358       0.10351556
Cu       2.55601424       4.42714652       0.00000000       0.08118181       0.01183661       0.14736320
Cu       5.11202847       4.42714652       0.00000000      -0.00792662       0.07038729       0.04095640
Cu       7.66804271       4.42714652       0.00000000       0.02090895      -0.12546181       0.03664678
Cu      10.22405695       4.42714652       0.00000000      -0.14485191      -0.01257896       0.00829628
Cu       3.83402136       6.64071979       0.00000000      -0.07468409       0.06396482       0.13271889
Cu       6.39003559       6.64071979       0.00000000       0.00679413       0.01748181       0.16835871
Cu       8.94604983       6.64071979       0.00000000       0.08766280      -0.01793926      -0.02397865
Cu      11.50206407       6.64071979       0.00000000       0.02153544      -0.02233656       0.05982535
Cu       1.27800712       0.73785775       2.08697689       0.19381606       0.07469411      -0.01033519
Cu       3.83402136       0.73785775       2.08697689      -0.03059142      -0.03604202      -0.05349532
Cu       6.39003559       0.73785775       2.08697689       0.03946565      -0.12925300      -0.17908475
Cu       8.94604983       0.73785775       2.08697689       0.02304970       0.20652092      -0.07076083
Cu       2.55601424       2.95143102       2.08697689       0.00785666       0.05696467       0.11577252
Cu       5.11202847       2.95143102       2.08697689       0.03077442      -0.06035919       0.07780136
Cu       7.66804271       2.95143102       2.08697689      -0.07366742       0.04386413       0.01511018
Cu      10.22405695       2.95143102       2.08697689       0.01455458      -0.02403803      -0.14333612
Cu       3.83402136       5.16500428       2.08697689       0.01238143      -0.10149580      -0.15610764
Cu       6.39003559       5.16500428       2.08697689       0.05374400      -0.01643717      -0.12887394
Cu       8.94604983       5.16500428       2.08697689       0.03006301      -0.05209415      -0.14762138
Cu      11.50206407       5.16500428       2.08697689       0.04030807       0.06011208      -0.29475867
Cu       5.11202847       7.37857754       2.08697689      -0.03652337       0.01247923      -0.07190809
Cu       7.66804271       7.37857754       2.08697689      -0.16165473      -0.03706033       0.00016654
Cu      10.22405695       7.37857754       2.08697689      -0.06132697       0.12873621      -0.11586865
Cu      12.78007119       7.37857754       2.08697689       0.10468686      -0.08686646      -0.19235556
Cu       0.01628720       1.51647304       4.10993042       0.00626779       0.00882376       0.00384313
Cu       2.53027533       1.49525188       4.13816412      -0.00864429      -0.00529761       0.01310384
Cu       6.31229613       2.10100000       6.21481978      -0.00384488      -0.00361102      -0.00505910
Cu       7.67257511       1.47824182       4.11840502      -0.00953334      -0.00044074       0.00315111
Cu       1.27564119       3.71750435       4.09646267       0.00058818      -0.00154524       0.01301036
Cu       3.83564733       3.68203325       4.16059425      -0.01011237       0.00309116       0.00535498
Cu       7.68435996       4.45556990       6.22949352       0.00104130      -0.00144354       0.00056110
Cu       8.93797339       3.70273162       4.10356665       0.00299932      -0.00043570       0.00327006
Cu       2.55079289       5.87627692       4.05754907       0.00184962      -0.00269829       0.01211768
Cu       5.14382802       5.93310123       4.05369314      -0.00610861       0.00937114      -0.00353744
Cu       7.70288958       5.89279052       4.12677874       0.00908624      -0.01300827       0.00265622
Cu      10.21394504       5.90637791       4.08858488      -0.00043680       0.00714412       0.00931684
Cu       3.81728709       8.15465580       4.08999278      -0.00378600      -0.00586952      -0.00134308
Cu       6.42008683       8.11889212       4.08681826      -0.00428065      -0.00444304       0.00480698
Cu       8.97549326       8.11768582       4.11363849       0.00673322      -0.00400617       0.00511435
Cu      11.51109488       8.12548268       4.09002490      -0.00149289       0.00465991      -0.00236205
Cu      -0.00197768       0.04425462       6.06195072      -0.00930808      -0.00967761      -0.00087957
Cu       2.49336617      -0.01372018       6.24162336       0.00102904      -0.00689174      -0.00353939
Cu       5.10683146      -0.14574298       6.34783342      -0.00585781       0.00705505      -0.01490091
Cu       7.70492495      -0.02834507       6.23869560      -0.00834888      -0.00163731      -0.00545508
Cu       1.23350042       2.24537032       6.19797348      -0.00682412      -0.00217439      -0.00161109
Cu       5.15875181       1.45223123       4.07695766      -0.00588116      -0.00737608       0.01154262
Cu       9.74828132       3.20549825       8.19565141      -0.02718442       0.00189234       0.00151902
Cu       8.92705855       2.15689332       6.12061233      -0.00887845       0.00712051      -0.00229521
Cu       2.58489698       4.45916285       6.24748840      -0.00319680      -0.00498320      -0.01102332
Cu       6.40684142       3.69166817       4.13600355      -0.00805256      -0.00310558       0.01097511
Cu      10.24695342       4.42458588       6.08860399       0.00772849      -0.00343430      -0.01165271
Cu      11.46158119       5.62762599       8.17848112      -0.01876136      -0.00034412       0.00667735
Cu       3.79071409       6.74097728       6.08448554       0.00662242      -0.01287395      -0.01190012
Cu       6.28168230       6.63877472       6.22560682       0.00179261      -0.00697569       0.00200066
Cu       8.99517798       6.55589633       6.14959246      -0.00480606       0.01010435      -0.00096768
Cu      11.52587616       6.62033286       6.00369389       0.00259341      -0.00946248      -0.02409478
S       11.89877200       3.47605597       8.20454333       0.00623639       0.01052686       0.01072132
S        3.95123283       1.78908135       6.00337976       0.00795161      -0.01317697      -0.00356065
S        4.93682270       4.76705405       6.03751753      -0.00129123      -0.00647330      -0.00407402
S        7.60374949       2.88539385       7.88423336      -0.01326190      -0.00168521       0.01487284
S       11.59475324       7.84360360       7.96165453       0.00504909       0.00771964       0.01633820
S        7.68844624       7.22024563       7.80542639       0.01594520      -0.00476210       0.00952732
72
Lattice="10.22405694917629 0.0 0.0 5.112028474588145 8.854293047725491 0.0 0.0 0.0 21.2609306566596" Properties=species:S:1:pos:R:3:forces:R:3 energy=-289.74931476 pbc="T T T"
Cu       0.00000000       0.00000000       0.00000000      -0.13372569      -0.02214600      -0.02019316
Cu       2.55601424       0.00000000       0.00000000       0.02999858      -0.08042729       0.11520701
Cu       5.11202847       0.00000000       0.00000000       0.02445078       0.03470221       0.08583486
Cu       7.66804271       0.00000000       0.00000000       0.07384717      -0.03836459       0.12980575
Cu       1.27800712       2.21357326       0.00000000       0.01924858       0.00128262       0.10930612
Cu       3.83402136       2.21357326       0.00000000       0.01777024      -0.02001771       0.11644136
Cu       6.39003559       2.21357326       0.00000000      -0.02084723      -0.03014444       0.13354629
Cu       8.94604983       2.21357326       0.00000000       0.02790991      -0.07353440       0.09873330
Cu       2.55601424       4.42714652       0.00000000       0.05513992       0.04100448       0.04027863
Cu       5.11202847       4.42714652       0.00000000      -0.01899839       0.04754222       0.07326186
Cu       7.66804271       4.42714652       0.00000000      -0.08587407      -0.04169586       0.01052001
Cu      10.22405695       4.42714652       0.00000000      -0.02563929       0.02975063      -0.01514989
Cu       3.83402136       6.64071979       0.00000000       0.04110238       0.00646582       0.03262878
Cu       6.39003559       6.64071979       0.00000000      -0.00435804       0.03481903      -0.00012716
Cu       8.94604983       6.64071979       0.00000000       0.01305630       0.03815659       0.01982821
Cu      11.50206407       6.64071979       0.00000000       0.00256021       0.03550988       0.11392341
Cu       1.27800712       0.73785775       2.08697689       0.21174918       0.10692501      -0.09120618
Cu       3.83402136       0.73785775       2.08697689      -0.13796274      -0.07589604       0.06071115
Cu       6.39003559       0.73785775       2.08697689       0.03173556      -0.04290337       0.02748523
Cu       8.94604983       0.73785775       2.08697689      -0.18104370       0.10322082      -0.07987391
Cu       2.55601424       2.95143102       2.08697689      -0.12100070      -0.09782559      -0.01953036
Cu       5.11202847       2.95143102       2.08697689      -0.02387541       0.01265329      -0.05874353
Cu       7.66804271       2.95143102       2.08697689       0.02268414      -0.05525436       0.01235663
Cu      10.22405695       2.95143102       2.08697689      -0.05998470       0.00692719      -0.17150458
Cu       3.83402136       5.16500428       2.08697689      -0.00820141       0.00532246      -0.27970916
Cu       6.39003559       5.16500428       2.08697689       0.01341328      -0.07015352      -0.05213917
Cu       8.94604983       5.16500428       2.08697689       0.06700054       0.03089844      -0.03932717
Cu      11.50206407       5.16500428       2.08697689       0.09944750       0.02549125      -0.08992600
Cu       5.11202847       7.37857754       2.08697689      -0.00488974      -0.01156389      -0.15236453
Cu       7.66804271       7.37857754       2.08697689       0.04140028      -0.01481783      -0.10918276
Cu      10.22405695       7.37857754       2.08697689       0.01279577      -0.02788476       0.07225661
Cu      12.78007119       7.37857754       2.08697689      -0.06028061       0.22537588      -0.12653321
Cu      -1.30386166      -0.68135160       4.11437762       0.00745948       0.00737427       0.00478222
Cu       2.54087087       1.42959986       4.14653486      -0.00349493      -0.00250944       0.00349926
Cu       5.06892169       1.41870014       4.09486872      -0.01259268       0.00144071       0.01176401
Cu       6.12547964       2.15641517       6.17205335       0.00902017       0.00487825       0.00328074
Cu       1.27148431       3.70086367       4.09033714       0.00985803      -0.00432247       0.00813928
Cu       3.81556788       3.75185972       4.06055637       0.00047361      -0.01219691       0.00805231
Cu       6.37924080       3.69596850       4.12828221       0.00209679      -0.01484845       0.01532356
Cu       8.89557131       3.66685032       4.08190158      -0.00960514       0.00207247      -0.01548740
Cu       2.59571382       5.95525175       4.08736719       0.00123778      -0.00093724      -0.00836693
Cu       5.10550137       5.93276779       4.08954943       0.00376154      -0.00003433       0.00097830
Cu       7.66977977       5.86129370       4.11069979       0.00348886       0.00449837      -0.00465779
Cu      10.23681350       5.92672275       4.09500805      -0.00339444       0.00313274       0.00932586
Cu       3.86484315       6.76370613       6.13415293       0.00031768      -0.01369173      -0.00562755
Cu       6.39956990       8.11169565       4.08321413      -0.00842902      -0.00324733       0.00468808
Cu       8.89401990       8.05809827       4.19015230      -0.00056818       0.00310938      -0.00528083
Cu      11.50707544       8.15474276       4.12044033      -0.00952107      -0.01066150       0.01156069
Cu       0.03771951       0.06021748       6.04362439       0.01595860       0.00708018      -0.00521723
Cu       2.55467418      -0.04889866       6.38842222      -0.01453649       0.01247567      -0.00916217
Cu       7.67283443       0.06806597       6.46171088       0.00264062      -0.01399782      -0.00074245
Cu       7.64452187       1.47809234       4.17456355      -0.00737024       0.00248962      -0.00101973
Cu      -0.00999458       1.49133621       4.07297902       0.00999341       0.00905193       0.00306963
Cu       1.32136120       2.30957722       6.21678391       0.00176653      -0.00028031       0.00978396
Cu       5.12722820      -0.08735296       6.20836507       0.00676049      -0.01309468      -0.01174608
Cu       9.06285055       2.21699306       6.17366887      -0.00055411      -0.01406773       0.00038922
Cu       2.55846278       4.53196988       6.17240408       0.01453451      -0.00973566       0.00016531
Cu       5.03361006       4.47556076       6.17220646       0.00740294      -0.00249642       0.00485747
Cu       7.64770200       4.26313528       6.41055584      -0.00058359       0.00869869       0.00169891
Cu      11.56996778       6.69053075       6.06051346      -0.00596430       0.00745816      -0.00301965
Cu       5.48355811       7.53510709       8.11078233      -0.00704478      -0.00268240      -0.00392899
Cu       6.47642124       6.64648459       6.03484794      -0.00006620      -0.00322070       0.00321782
Cu       8.97565002       6.55863749       6.25969086       0.00682099      -0.00449506       0.00533097
Cu      10.61327561       6.59807268       8.28663500       0.01253230      -0.00314580       0.00753630
S        9.12235699       8.09855533       8.05668877       0.01041287      -0.01579826       0.00156839
S        7.58150292       2.02438617       7.75814854       0.00330243      -0.01168201       0.01159614
S       12.50624640       5.53245863       8.24124076      -0.00411720      -0.00118255       0.00355238
S       10.14711778       4.36216114       5.93832979       0.00396498       0.00670520       0.00685946
S        6.21801953       5.36640044       7.84210624       0.02064594      -0.00657995      -0.00905951
S        1.02878480       0.87484289       7.93034280      -0.00437774      -0.00046901      -0.00955733
S        3.82414079       2.44214079       5.94445212       0.01068108       0.00631632      -0.00033553
S       13.44278107       7.49097793       8.35247573       0.00845989      -0.00482239       0.00557444
74
Lattice="10.22405694917629 0.0 0.0 5.112028474588145 8.854293047725491 0.0 0.0 0.0 21.2609306566596" Properties=species:S:1:pos:R:3:forces:R:3 energy=-300.24125953000004 pbc="T T T"
Cu       0.00000000       0.00000000       0.00000000      -0.09196687       0.05264595       0.03235791
Cu       2.55601424       0.00000000       0.00000000      -0.09403471      -0.00446628       0.08311688
Cu       5.11202847       0.00000000       0.00000000       0.03037857       0.04191273      -0.00631527
Cu       7.66804271       0.00000000       0.00000000       0.12548621      -0.11232802       0.02872017
Cu       1.27800712       2.21357326       0.00000000       0.02597613       0.08473501       0.07521978
Cu       3.83402136       2.21357326       0.00000000      -0.00521607      -0.04592505       0.10277806
Cu       6.39003559       2.21357326       0.00000000      -0.07525143      -0.03014025       0.03870185
Cu       8.94604983       2.21357326       0.00000000      -0.00568529      -0.02314056       0.14486324
Cu       2.55601424       4.42714652       0.00000000      -0.01196867      -0.05803886      -0.01760510
Cu       5.11202847       4.42714652       0.00000000      -0.03498013       0.04310031       0.01609247
Cu       7.66804271       4.42714652       0.00000000       0.06141702       0.02323189       0.06561388
Cu      10.22405695       4.42714652       0.00000000       0.04584896       0.04061760       0.00834933
Cu       3.83402136       6.64071979       0.00000000      -0.00961731      -0.06005614       0.04017253
Cu       6.39003559       6.64071979       0.00000000       0.02495158      -0.00953415       0.08450427
Cu       8.94604983       6.64071979       0.00000000       0.02286834      -0.13243468       0.04311831
Cu      11.50206407       6.64071979       0.00000000      -0.13438031       0.17973774      -0.01047636
Cu       1.27800712       0.73785775       2.08697689       0.02603280       0.06233169      -0.05367323
Cu       3.83402136       0.73785775       2.08697689      -0.02437572       0.17510904       0.04122907
Cu       6.39003559       0.73785775       2.08697689      -0.12827292       0.05251907       0.31322502
Cu       8.94604983       0.73785775       2.08697689       0.00299238       0.16651751      -0.06357748
Cu       2.55601424       2.95143102       2.08697689      -0.12538268       0.09811863       0.03760980
Cu       5.11202847       2.95143102       2.08697689      -0.18969121      -0.11267228      -0.17392123
Cu       7.66804271       2.95143102       2.08697689       0.39676211       0.00040472      -0.09822358
Cu      10.22405695       2.95143102       2.08697689       0.06030165      -0.15279851       0.26039682
Cu       3.83402136       5.16500428       2.08697689       0.10261065      -0.00507834       0.10158555
Cu       6.39003559       5.16500428       2.08697689      -0.10218163      -0.00575199      -0.37124974
Cu       8.94604983       5.16500428       2.08697689      -0.00858849       0.05295205      -0.08697440
Cu      11.50206407       5.16500428       2.08697689       0.02612831      -0.12943247       0.08986908
Cu       5.11202847       7.37857754       2.08697689       0.02623154      -0.14364988      -0.32732370
Cu       7.66804271       7.37857754       2.08697689       0.08955240       0.03409275      -0.20047091
Cu      10.22405695       7.37857754       2.08697689       0.06695064      -0.17089139       0.02878476
Cu      12.78007119       7.37857754       2.08697689      -0.11232483       0.09374358      -0.13496963
Cu       0.01490506       1.49743751       4.20200261      -0.00002314       0.00022311      -0.00109245
Cu       2.55659097       1.49885330       4.10626153      -0.00003410       0.00061693      -0.00140231
Cu       5.13467135       1.44593250       4.20078661      -0.00142394      -0.00144713       0.00030946
Cu       7.68676827       1.45423702       4.13715669      -0.00104300      -0.00096232      -0.00253054
Cu       1.29819454       3.72431494       4.19886200      -0.00074318      -0.00059300      -0.00064754
Cu       3.85747049       3.74727522       4.12471290       0.00249324      -0.00012934      -0.00036753
Cu       6.33235015       3.70368821       3.99842590      -0.00572587       0.00270024      -0.00705882
Cu       9.02609543       3.68835693       4.14592928       0.00326684       0.00198320      -0.00216180
Cu       2.54547825       5.90347911       4.13954910      -0.00012883       0.00052520      -0.00048036
Cu       7.73587167       5.86079750       4.04792931      -0.00074821       0.00072198      -0.00024809
Cu       8.92469730       6.57226982       6.13478156       0.00090001       0.00144686       0.00082876
Cu      10.27604804       5.86872525       4.15633877       0.00331433      -0.00023542       0.00077411
Cu       3.82364875       8.06306791       4.00894719      -0.00031087       0.00272618       0.00185218
Cu       6.41890924       8.19227547       4.05272016       0.00104028      -0.00075220      -0.00084204
Cu       9.00735235       8.09644052       4.12754762       0.00267301       0.00062489      -0.00148392
Cu      11.43503772       6.48116752       6.24145537      -0.00104387      -0.00181626       0.00138563
Cu       2.52215377       0.07402450       6.17812505       0.00228359      -0.00090424       0.00172838
Cu       5.07447616      -0.10291993       6.18341430       0.00336722       0.00059281      -0.00358856
Cu       7.19840747       1.07985540       6.63840524      -0.00228110      -0.00144081       0.00011694
Cu       6.39479833      -0.75853079       4.18590884      -0.00010175      -0.00029193       0.00018070
Cu       1.30642175       2.29862509       6.27692726      -0.00077440       0.00018666       0.00267448
Cu       5.44627559       4.52476064       6.23094412       0.00022552       0.00168433       0.00197429
Cu      10.56936559       0.39421827       7.74124311       0.00096767      -0.00183455      -0.00119983
Cu       8.07170097       3.26095589       8.00099118       0.00203151      -0.00388381       0.00123207
Cu       5.25105648       6.55662072       8.34432990      -0.00282821       0.00108418      -0.00232438
Cu       5.13606175       5.92644550       4.14927762       0.00187071      -0.00079687       0.00064056
Cu      10.12838804       4.30058462       6.40122736       0.00183382      -0.00214997       0.00266730
Cu      12.99287432       4.51013580       6.29179399       0.00169241      -0.00041359      -0.00141162
Cu       3.81941728       6.78987653       6.16148242       0.00015142      -0.00290034       0.00308709
Cu       7.63990365       5.78134882       8.37208193       0.00701794       0.00135415      -0.00127140
Cu       8.91772052       8.16145918       8.28959184       0.00040058      -0.00266848       0.00200722
Cu      12.25533960       7.86176265       8.17398721       0.00167206      -0.00560267       0.00010211
S        6.81605977       8.04605018       9.01111648       0.00024637       0.00624434      -0.00029680
S        7.49160898       3.16621760       5.74825958       0.00124230       0.00076748       0.01023508
S        9.83976135       5.91140949       8.10365241       0.00159932      -0.00124433      -0.00102433
S        3.62799208       2.35629131       5.98593959      -0.00558210      -0.00251467       0.00394541
S        6.03497038       4.25134635       8.45334186      -0.00347706      -0.00337468       0.00079386
S        9.17817247       0.24088266       5.93754173       0.00717783       0.00223078       0.00312410
S        0.06859759       2.68659668       8.16410061       0.00185215      -0.00163778      -0.19884830
S       10.81111621       9.47346887       8.27261951      -0.00436436       0.00904935       0.09927334
S       13.29656400       5.96311525       8.14722800      -0.00213197       0.00154843      -0.00374611
S        6.65763673       6.78204369       5.81346850       0.00287481      -0.00414814       0.00156549
