Cu
 1.0000000000000000
    10.2240569499999996    0.0000000000000000    0.0000000000000000
     5.1120284700000003    8.8542930500000008    0.0000000000000000
     0.0000000000000000    0.0000000000000000   21.2609306599999996
 Cu 
  64
Selective dynamics
Cartesian
  0.0000000000000000  0.0000000000000000  0.0000000000000000   F   F   F
  6.9301849999999998  7.5762859999999996  0.0000000000000000   F   F   F
  8.7483409999999999  6.2982790000000000  0.0000000000000000   F   F   F
 10.5664979999999993  5.0202720000000003  0.0000000000000000   F   F   F
  2.1870850000000002  1.5745700000000000  0.0000000000000000   F   F   F
  4.0052420000000000  0.2965630000000000  0.0000000000000000   F   F   F
 10.9354270000000007  7.8728490000000004  0.0000000000000000   F   F   F
 12.7535830000000008  6.5948409999999997  0.0000000000000000   F   F   F
  4.3741709999999996  3.1491389999999999  0.0000000000000000   F   F   F
  6.1923269999999997  1.8711320000000000  0.0000000000000000   F   F   F
  8.0104839999999999  0.5931250000000000  0.0000000000000000   F   F   F
  4.7166119999999996  8.1694110000000002  0.0000000000000000   F   F   F
  6.5612560000000002  4.7237090000000004  0.0000000000000000   F   F   F
  8.3794129999999996  3.4457019999999998  0.0000000000000000   F   F   F
 10.1975689999999997  2.1676950000000001  0.0000000000000000   F   F   F
  1.7916690000000000  0.8896880000000000  0.0000000000000000   F   F   F
  1.3350810000000000  0.0988540000000000  2.0869770000000001   F   F   F
  8.2652660000000004  7.6751399999999999  2.0869770000000001   F   F   F
 10.0834220000000006  6.3971330000000002  2.0869770000000001   F   F   F
 11.9015789999999999  5.1191259999999996  2.0869770000000001   F   F   F
  3.5221659999999999  1.6734240000000000  2.0869770000000001   F   F   F
  5.3403219999999996  0.3954170000000000  2.0869770000000001   F   F   F
 12.2705070000000003  7.9717029999999998  2.0869770000000001   F   F   F
  3.8646069999999999  6.6936960000000001  2.0869770000000001   F   F   F
  5.7092510000000001  3.2479939999999998  2.0869770000000001   F   F   F
  7.5274080000000003  1.9699860000000000  2.0869770000000001   F   F   F
  9.3455639999999995  0.6919790000000000  2.0869770000000001   F   F   F
  6.0516920000000001  8.2682649999999995  2.0869770000000001   F   F   F
  7.8963369999999999  4.8225629999999997  2.0869770000000001   F   F   F
  9.7144929999999992  3.5445560000000000  2.0869770000000001   F   F   F
  1.3085929999999999  2.2665489999999999  2.0869770000000001   F   F   F
  3.1267489999999998  0.9885420000000000  2.0869770000000001   F   F   F
 11.0800129999999992  1.4928740000000000  4.0852789999999999   T   T   T
  2.6622960000000000  0.2261000000000000  4.1077570000000003   T   T   T
  9.5971930000000008  7.7891480000000000  4.0796370000000000   T   T   T
 11.4326830000000008  6.5276350000000001  4.1026870000000004   T   T   T
  3.0357799999999999  3.0613630000000001  4.0845719999999996   T   T   T
  4.8636090000000003  1.7793159999999999  4.1059099999999997   T   T   T
  6.6764880000000000  0.5045660000000000  4.1062159999999999   T   T   T
 13.6019980000000000  8.0838920000000005  4.1221959999999997   T   T   T
  5.2293750000000001  4.6384850000000002  4.0681529999999997   T   T   T
  7.0468159999999997  3.3488490000000000  4.0927090000000002   T   T   T
  8.8572679999999995  2.0757010000000000  4.1027620000000002   T   T   T
 10.6569559999999992  0.7968400000000000  4.0986180000000001   T   T   T
  7.4137610000000000  6.2112170000000004  4.0707000000000004   T   T   T
  9.2314500000000006  4.9258810000000004  4.1089900000000004   T   T   T
 11.0423340000000003  3.6573180000000001  4.0797270000000001   T   T   T
  2.6332170000000001  2.4012680000000000  4.0807659999999997   T   T   T
 10.2022440000000003  0.0197620000000000  6.0869150000000003   T   T   T
  6.8747720000000001  7.6025479999999996  6.1488849999999999   T   T   T
  8.7682839999999995  6.2283179999999998  6.1677739999999996   T   T   T
 10.5490750000000002  4.9991580000000004  6.0635440000000003   T   T   T
  2.1978059999999999  1.5611990000000000  6.2012650000000002   T   T   T
  4.0369989999999998  0.3964810000000000  6.1360460000000003   T   T   T
 10.9040409999999994  7.8634079999999997  6.1278810000000004   T   T   T
 12.6647649999999992  6.5576119999999998  6.1589280000000004   T   T   T
  4.3884889999999999  3.1961919999999999  6.0824480000000003   T   T   T
  6.1386560000000001  1.8842110000000001  6.1640180000000004   T   T   T
  8.0393749999999997  0.5118880000000000  6.2297169999999999   T   T   T
  4.7938450000000001  8.2508909999999993  6.1564059999999996   T   T   T
  6.5602510000000001  4.7436429999999996  6.1199839999999996   T   T   T
  8.4170809999999996  3.5307170000000001  6.1596960000000003   T   T   T
 10.2158119999999997  2.1964079999999999  6.1251680000000004   T   T   T
  1.8171349999999999  0.9012060000000000  6.0605729999999998   T   T   T
